(set-logic SLHV)
(declare-hvar emp IntHeap)
(declare-locvar nil IntLoc)
(declare-datatype pt_record_0 ((Pt_R_0 (loc IntLoc))))
(declare-datatype pt_record_1 ((Pt_R_1 (data Int))))
(declare-const invalidFree_1 Bool)
(declare-const loc_1 Int)
(declare-const invalidFree_0 Bool)
(declare-const $r_main0_0 Int)
(declare-const $r_main0_1 Int)
(declare-const $i9_foo0_0 Int)
(declare-const $i9_foo0_1 Int)
(declare-const $i8_foo0_0 Int)
(declare-const $i8_foo0_1 Int)
(declare-const $i7_foo0_0 Int)
(declare-const $i7_foo0_1 Int)
(declare-const $i6_foo0_0 Int)
(declare-const $i6_foo0_1 Int)
(declare-const $i4_foo0_0 Int)
(declare-const $i4_foo0_1 Int)
(declare-const $i2_foo0_0 Int)
(declare-const $i2_foo0_1 Int)
(declare-const $i19_foo0_0 Int)
(declare-const $i19_foo0_1 Int)
(declare-const $i18_foo0_0 Int)
(declare-const $i18_foo0_1 Int)
(declare-const $i17_foo0_0 Int)
(declare-const $i17_foo0_1 Int)
(declare-const $i16_foo0_0 Int)
(declare-const $i16_foo0_1 Int)
(declare-const $i15_main0_0 Int)
(declare-const $i15_main0_1 Int)
(declare-const $i14_main0_0 Int)
(declare-const $i14_main0_1 Int)
(declare-const $i14_foo0_0 Int)
(declare-const $i14_foo0_1 Int)
(declare-const $i12_foo0_0 Int)
(declare-const $i12_foo0_1 Int)
(declare-const $i11_foo0_0 Int)
(declare-const $i11_foo0_1 Int)
(declare-const $i10_foo0_0 Int)
(declare-const $i10_foo0_1 Int)
(declare-locvar $p5_foo0_0 IntLoc)
(declare-locvar $p5_foo0_1 IntLoc)
(declare-locvar $p3_foo0_0 IntLoc)
(declare-locvar $p3_foo0_1 IntLoc)
(declare-locvar $p24_main0_0 IntLoc)
(declare-locvar $p24_main0_1 IntLoc)
(declare-locvar $p23_main0_0 IntLoc)
(declare-locvar $p23_main0_1 IntLoc)
(declare-locvar $p22_main0_0 IntLoc)
(declare-locvar $p22_main0_1 IntLoc)
(declare-locvar $p21_main0_0 IntLoc)
(declare-locvar $p21_main0_1 IntLoc)
(declare-locvar $p20_main0_0 IntLoc)
(declare-locvar $p20_main0_1 IntLoc)
(declare-locvar $p19_main0_0 IntLoc)
(declare-locvar $p19_main0_1 IntLoc)
(declare-locvar $p18_main0_0 IntLoc)
(declare-locvar $p18_main0_1 IntLoc)
(declare-locvar $p17_main0_0 IntLoc)
(declare-locvar $p17_main0_1 IntLoc)
(declare-locvar $p16_main0_0 IntLoc)
(declare-locvar $p16_main0_1 IntLoc)
(declare-locvar $p15_foo0_0 IntLoc)
(declare-locvar $p15_foo0_1 IntLoc)
(declare-locvar $p13_main0_0 IntLoc)
(declare-locvar $p13_main0_1 IntLoc)
(declare-locvar $p13_foo0_0 IntLoc)
(declare-locvar $p13_foo0_1 IntLoc)
(declare-locvar $p12_main0_0 IntLoc)
(declare-locvar $p12_main0_1 IntLoc)
(declare-hvar H3_1 IntHeap)
(declare-hvar H_1 IntHeap)
(declare-hvar AH2_1 IntHeap)
(declare-hvar AH_1 IntHeap)
(declare-locvar $p9_main01_1 IntLoc)
(declare-locvar $p9_main0_1 IntLoc)
(declare-locvar $p8_main01_1 IntLoc)
(declare-locvar $p8_main0_1 IntLoc)
(declare-locvar $p4_main01_1 IntLoc)
(declare-locvar $p4_main0_1 IntLoc)
(declare-locvar $p3_main01_1 IntLoc)
(declare-locvar $p3_main0_1 IntLoc)
(declare-locvar $p11_main01_1 IntLoc)
(declare-locvar $p11_main0_1 IntLoc)
(declare-locvar $p10_main01_1 IntLoc)
(declare-locvar $p10_main0_1 IntLoc)
(declare-const $i7_main01_1 Int)
(declare-const $i7_main0_1 Int)
(declare-const $i6_main01_1 Int)
(declare-const $i6_main0_1 Int)
(declare-const $i5_main01_1 Int)
(declare-const $i5_main0_1 Int)
(declare-const $i2_main01_1 Int)
(declare-const $i2_main0_1 Int)
(declare-const $i1_main01_1 Int)
(declare-const $i1_main0_1 Int)
(declare-const $i1_foo01_1 Int)
(declare-const $i1_foo0_1 Int)
(declare-const $i0_main01_1 Int)
(declare-const $i0_main0_1 Int)
(declare-const $i0_foo01_1 Int)
(declare-const $i0_foo0_1 Int)
(declare-locvar $M.33_1 IntLoc)
(declare-locvar $M.3_1 IntLoc)
(declare-locvar $M.12_1 IntLoc)
(declare-locvar $M.1_1 IntLoc)
(declare-const $M.02_1 Int)
(declare-const $M.0_1 Int)
(declare-hvar h1_1 IntHeap)
(declare-const d7_1 Int)
(declare-hvar H2_1 IntHeap)
(declare-locvar $M.32_1 IntLoc)
(declare-locvar l4_1 IntLoc)
(declare-hvar AH1_1 IntHeap)
(declare-locvar l5_1 IntLoc)
(declare-locvar l6_1 IntLoc)
(declare-const d6_1 Int)
(declare-const d5_1 Int)
(declare-const d4_1 Int)
(declare-hvar H1_1 IntHeap)
(declare-locvar l1_1 IntLoc)
(declare-hvar AH_0 IntHeap)
(declare-locvar l2_1 IntLoc)
(declare-locvar l3_1 IntLoc)
(declare-const d3_1 Int)
(declare-const d2_1 Int)
(declare-const d1_1 Int)
(declare-hvar H_0 IntHeap)
(declare-locvar $M.31_1 IntLoc)
(declare-locvar $M.11_1 IntLoc)
(declare-const $M.01_1 Int)
(declare-const loc_0 Int)
(assert
 (let (($x1238 (= loc_1 2)))
 (let (($x1294 (= invalidFree_1 invalidFree_0)))
 (let (($x1234 (= $r_main0_1 $r_main0_0)))
 (let (($x1230 (= $i9_foo0_1 $i9_foo0_0)))
 (let (($x1226 (= $i8_foo0_1 $i8_foo0_0)))
 (let (($x1222 (= $i7_foo0_1 $i7_foo0_0)))
 (let (($x1218 (= $i6_foo0_1 $i6_foo0_0)))
 (let (($x1214 (= $i4_foo0_1 $i4_foo0_0)))
 (let (($x1210 (= $i2_foo0_1 $i2_foo0_0)))
 (let (($x1206 (= $i19_foo0_1 $i19_foo0_0)))
 (let (($x1202 (= $i18_foo0_1 $i18_foo0_0)))
 (let (($x1198 (= $i17_foo0_1 $i17_foo0_0)))
 (let (($x1194 (= $i16_foo0_1 $i16_foo0_0)))
 (let (($x1190 (= $i15_main0_1 $i15_main0_0)))
 (let (($x1186 (= $i14_main0_1 $i14_main0_0)))
 (let (($x1182 (= $i14_foo0_1 $i14_foo0_0)))
 (let (($x1178 (= $i12_foo0_1 $i12_foo0_0)))
 (let (($x1174 (= $i11_foo0_1 $i11_foo0_0)))
 (let (($x1183 (and (and (and (and true (= $i10_foo0_1 $i10_foo0_0)) $x1174) $x1178) $x1182)))
 (let (($x1207 (and (and (and (and (and (and $x1183 $x1186) $x1190) $x1194) $x1198) $x1202) $x1206)))
 (let (($x1231 (and (and (and (and (and (and $x1207 $x1210) $x1214) $x1218) $x1222) $x1226) $x1230)))
 (let (($x1235 (and $x1231 $x1234)))
 (let (($x1165 (= $p5_foo0_1 $p5_foo0_0)))
 (let (($x1161 (= $p3_foo0_1 $p3_foo0_0)))
 (let (($x1157 (= $p24_main0_1 $p24_main0_0)))
 (let (($x1153 (= $p23_main0_1 $p23_main0_0)))
 (let (($x1149 (= $p22_main0_1 $p22_main0_0)))
 (let (($x1145 (= $p21_main0_1 $p21_main0_0)))
 (let (($x1141 (= $p20_main0_1 $p20_main0_0)))
 (let (($x1137 (= $p19_main0_1 $p19_main0_0)))
 (let (($x1133 (= $p18_main0_1 $p18_main0_0)))
 (let (($x1129 (= $p17_main0_1 $p17_main0_0)))
 (let (($x1125 (= $p16_main0_1 $p16_main0_0)))
 (let (($x1121 (= $p15_foo0_1 $p15_foo0_0)))
 (let (($x1117 (= $p13_main0_1 $p13_main0_0)))
 (let (($x1113 (= $p13_foo0_1 $p13_foo0_0)))
 (let (($x1122 (and (and (and (and true (= $p12_main0_1 $p12_main0_0)) $x1113) $x1117) $x1121)))
 (let (($x1146 (and (and (and (and (and (and $x1122 $x1125) $x1129) $x1133) $x1137) $x1141) $x1145)))
 (let (($x1166 (and (and (and (and (and $x1146 $x1149) $x1153) $x1157) $x1161) $x1165)))
 (let (($x1101 (= H_1 H3_1)))
 (let (($x1098 (= AH_1 AH2_1)))
 (let (($x1095 (= $p9_main0_1 $p9_main01_1)))
 (let (($x1092 (= $p8_main0_1 $p8_main01_1)))
 (let (($x1089 (= $p4_main0_1 $p4_main01_1)))
 (let (($x1086 (= $p3_main0_1 $p3_main01_1)))
 (let (($x1083 (= $p11_main0_1 $p11_main01_1)))
 (let (($x1080 (= $p10_main0_1 $p10_main01_1)))
 (let (($x1077 (= $i7_main0_1 $i7_main01_1)))
 (let (($x1074 (= $i6_main0_1 $i6_main01_1)))
 (let (($x1071 (= $i5_main0_1 $i5_main01_1)))
 (let (($x1068 (= $i2_main0_1 $i2_main01_1)))
 (let (($x1065 (= $i1_main0_1 $i1_main01_1)))
 (let (($x1062 (= $i1_foo0_1 $i1_foo01_1)))
 (let (($x1059 (= $i0_main0_1 $i0_main01_1)))
 (let (($x1056 (= $i0_foo0_1 $i0_foo01_1)))
 (let (($x1053 (= $M.3_1 $M.33_1)))
 (let (($x1057 (and (and (and (= $M.0_1 $M.02_1) (= $M.1_1 $M.12_1)) $x1053) $x1056)))
 (let (($x1075 (and (and (and (and (and (and $x1057 $x1059) $x1062) $x1065) $x1068) $x1071) $x1074)))
 (let (($x1093 (and (and (and (and (and (and $x1075 $x1077) $x1080) $x1083) $x1086) $x1089) $x1092)))
 (let (($x1102 (and (and (and $x1093 $x1095) $x1098) $x1101)))
 (let (($x1289 (and $x1102 true)))
 (let (($x921 (or (and (< 0 $i0_foo01_1) (= $i1_foo01_1 1)) (and (not (< 0 $i0_foo01_1)) (= $i1_foo01_1 0)))))
 (let (($x923 (= $i0_foo01_1 $M.02_1)))
 (let (($x1247 (or $x923 invalidFree_0)))
 (let (($x934 (and (= H2_1 (uplus h1_1 (pt $p10_main01_1 (Pt_R_1 d7_1)))) (= H3_1 (uplus h1_1 (pt $p10_main01_1 (Pt_R_1 0)))))))
 (let (($x1248 (or $x934 invalidFree_0)))
 (let (($x945 (= $M.33_1 $p11_main01_1)))
 (let (($x1249 (or $x945 invalidFree_0)))
 (let (($x948 (= $p11_main01_1 (locadd $p10_main01_1 1))))
 (let (($x1250 (or $x948 invalidFree_0)))
 (let (($x950 (= $p10_main01_1 $M.32_1)))
 (let (($x1251 (or $x950 invalidFree_0)))
 (let (($x952 (= $M.32_1 $p8_main01_1)))
 (let (($x1252 (or $x952 invalidFree_0)))
 (let (($x954 (= $p9_main01_1 $p8_main01_1)))
 (let (($x1253 (or $x954 invalidFree_0)))
 (let (($x958 (= AH2_1 (uplus AH1_1 (pt l4_1 (Pt_R_1 3))))))
 (let (($x959 (= $p8_main01_1 l4_1)))
 (let (($x961 (= l6_1 (locadd l5_1 1))))
 (let (($x963 (= l5_1 (locadd l4_1 1))))
 (let ((?x972 (uplus (uplus (pt l4_1 (Pt_R_1 d4_1)) (pt l5_1 (Pt_R_1 d5_1))) (pt l6_1 (Pt_R_1 d6_1)))))
 (let (($x974 (= H2_1 (uplus H1_1 ?x972))))
 (let (($x977 (and (and (and $x974 (and $x963 $x961)) $x959) $x958)))
 (let (($x979 (= $i7_main01_1 12)))
 (let (($x1255 (or $x979 invalidFree_0)))
 (let (($x981 (= $i6_main01_1 3)))
 (let (($x1256 (or $x981 invalidFree_0)))
 (let (($x983 (= $i5_main01_1 $M.02_1)))
 (let (($x1257 (or $x983 invalidFree_0)))
 (let (($x985 (= $M.12_1 $p3_main01_1)))
 (let (($x1258 (or $x985 invalidFree_0)))
 (let (($x987 (= $p4_main01_1 $p3_main01_1)))
 (let (($x1259 (or $x987 invalidFree_0)))
 (let (($x991 (= AH1_1 (uplus AH_0 (pt l1_1 (Pt_R_1 2))))))
 (let (($x992 (= $p3_main01_1 l1_1)))
 (let (($x994 (= l3_1 (locadd l2_1 1))))
 (let (($x996 (= l2_1 (locadd l1_1 1))))
 (let ((?x1005 (uplus (uplus (pt l1_1 (Pt_R_1 d1_1)) (pt l2_1 (Pt_R_1 d2_1))) (pt l3_1 (Pt_R_1 d3_1)))))
 (let (($x1007 (= H1_1 (uplus H_0 ?x1005))))
 (let (($x1010 (and (and (and $x1007 (and $x996 $x994)) $x992) $x991)))
 (let (($x1012 (= $i2_main01_1 12)))
 (let (($x1261 (or $x1012 invalidFree_0)))
 (let (($x1014 (= $i1_main01_1 3)))
 (let (($x1262 (or $x1014 invalidFree_0)))
 (let (($x1016 (= $i0_main01_1 $M.02_1)))
 (let (($x1263 (or $x1016 invalidFree_0)))
 (let (($x1018 (= $M.02_1 3)))
 (let (($x1264 (or $x1018 invalidFree_0)))
 (let (($x1020 (= $M.31_1 nil)))
 (let (($x1265 (or $x1020 invalidFree_0)))
 (let (($x1022 (= $M.11_1 nil)))
 (let (($x1266 (or $x1022 invalidFree_0)))
 (let (($x1024 (= $M.01_1 0)))
 (let (($x1267 (or $x1024 invalidFree_0)))
 (let (($x1273 (and (and (and (and (and (and $x1267 $x1266) $x1265) $x1264) $x1263) $x1262) $x1261)))
 (let (($x1278 (and (and (and (and (and $x1273 (or $x1010 invalidFree_0)) $x1259) $x1258) $x1257) $x1256)))
 (let (($x1283 (and (and (and (and (and $x1278 $x1255) (or $x977 invalidFree_0)) $x1253) $x1252) $x1251)))
 (let (($x1288 (and (and (and (and (and $x1283 $x1250) $x1249) $x1248) $x1247) (or $x921 invalidFree_0))))
 (let (($x867 (= loc_0 1)))
 (let (($x1297 (=> $x867 (and (and (and (and (and $x1288 $x1289) $x1166) $x1235) $x1294) $x1238))))
 (let (($x1244 (not invalidFree_0)))
 (let (($x869 (and (and (= H_0 emp) (= AH_0 emp)) $x867)))
 (and (and (and $x869 $x1244) $x1297) invalidFree_1))))))))))))))))))))))))))))))))))))))))))))))))))))))))))))))))))))))))))))))))))))))))))))))))))))))))))))))))))))))))))))
(check-sat)
